# CIF file 
data_findsym-output
_audit_creation_method FINDSYM

_chemical_name_mineral 'alpha-Toluene'
_chemical_formula_sum 'C7 H8'

loop_
_publ_author_name
 'S. K Nayak'
 'R. Sathishkumar'
 'T. N. {Guru Row}'
_journal_name_full_name
;
 CrystEngComm
;
_journal_volume 12
_journal_year 2010
_journal_page_first 3112
_journal_page_last 3118
_publ_Section_title
;
 Directing role of functional groups in selective generation of C-H-$\pi$ interactions: In situ cryo-crystallographic studies on benzyl derivatives
;

# Found in Cambridge Structural Database, {CSD Entry: TOLUEN03},

_aflow_title '$\alpha$-Toluene Structure'
_aflow_proto 'A7B8_mP120_14_14e_16e'
_aflow_params 'a,b/a,c/a,\beta,x_{1},y_{1},z_{1},x_{2},y_{2},z_{2},x_{3},y_{3},z_{3},x_{4},y_{4},z_{4},x_{5},y_{5},z_{5},x_{6},y_{6},z_{6},x_{7},y_{7},z_{7},x_{8},y_{8},z_{8},x_{9},y_{9},z_{9},x_{10},y_{10},z_{10},x_{11},y_{11},z_{11},x_{12},y_{12},z_{12},x_{13},y_{13},z_{13},x_{14},y_{14},z_{14},x_{15},y_{15},z_{15},x_{16},y_{16},z_{16},x_{17},y_{17},z_{17},x_{18},y_{18},z_{18},x_{19},y_{19},z_{19},x_{20},y_{20},z_{20},x_{21},y_{21},z_{21},x_{22},y_{22},z_{22},x_{23},y_{23},z_{23},x_{24},y_{24},z_{24},x_{25},y_{25},z_{25},x_{26},y_{26},z_{26},x_{27},y_{27},z_{27},x_{28},y_{28},z_{28},x_{29},y_{29},z_{29},x_{30},y_{30},z_{30}'
_aflow_params_values '7.5889,0.766725085322,3.55545599494,106.136,0.25252,0.5751,0.3402,0.76924,0.888,0.47034,0.13489,0.3866,0.33222,0.8218,0.8146,0.42747,0.12506,0.2343,0.29191,0.78423,0.9464,0.38285,0.23276,0.2673,0.25885,0.69189,0.1533,0.38027,0.34844,0.4547,0.26591,0.63874,0.2281,0.42248,0.35819,0.6069,0.3061,0.67752,0.0969,0.46714,0.26777,0.7386,0.3843,0.8119,0.7461,0.51889,0.0602,0.3617,0.3547,0.8843,0.6723,0.4287,0.0438,0.1068,0.2871,0.822,0.8945,0.354,0.2273,0.1621,0.2315,0.6653,0.243,0.3497,0.4219,0.4796,0.2431,0.5754,0.3699,0.4209,0.4385,0.7352,0.3104,0.6409,0.1506,0.496,0.9409,0.7672,0.5381,0.7891,0.5835,0.5099,0.7334,0.7952,0.5403,0.2081,0.8842,0.3711,0.3975,0.7664,0.4019,0.2077,0.6717,0.4087'
_aflow_Strukturbericht 'None'
_aflow_Pearson 'mP120'

_symmetry_space_group_name_H-M "P 1 21/c 1"
_symmetry_Int_Tables_number 14
 
_cell_length_a    7.58890
_cell_length_b    5.81860
_cell_length_c    26.98200
_cell_angle_alpha 90.00000
_cell_angle_beta  106.13600
_cell_angle_gamma 90.00000
 
loop_
_space_group_symop_id
_space_group_symop_operation_xyz
1 x,y,z
2 -x,y+1/2,-z+1/2
3 -x,-y,-z
4 x,-y+1/2,z+1/2
 
loop_
_atom_site_label
_atom_site_type_symbol
_atom_site_symmetry_multiplicity
_atom_site_Wyckoff_label
_atom_site_fract_x
_atom_site_fract_y
_atom_site_fract_z
_atom_site_occupancy
C1  C   4 e 0.25252  0.57510  0.34020  1.00000
C2  C   4 e 0.76924  0.88800  0.47034  1.00000
C3  C   4 e 0.13489  0.38660  0.33222  1.00000
C4  C   4 e 0.82180  0.81460  0.42747  1.00000
C5  C   4 e 0.12506  0.23430  0.29191  1.00000
C6  C   4 e 0.78423  0.94640  0.38285  1.00000
C7  C   4 e 0.23276  0.26730  0.25885  1.00000
C8  C   4 e 0.69189  0.15330  0.38027  1.00000
C9  C   4 e 0.34844  0.45470  0.26591  1.00000
C10 C   4 e 0.63874  0.22810  0.42248  1.00000
C11 C   4 e 0.35819  0.60690  0.30610  1.00000
C12 C   4 e 0.67752  0.09690  0.46714  1.00000
C13 C   4 e 0.26777  0.73860  0.38430  1.00000
C14 C   4 e 0.81190  0.74610  0.51889  1.00000
H1  H   4 e 0.06020  0.36170  0.35470  1.00000
H2  H   4 e 0.88430  0.67230  0.42870  1.00000
H3  H   4 e 0.04380  0.10680  0.28710  1.00000
H4  H   4 e 0.82200  0.89450  0.35400  1.00000
H5  H   4 e 0.22730  0.16210  0.23150  1.00000
H6  H   4 e 0.66530  0.24300  0.34970  1.00000
H7  H   4 e 0.42190  0.47960  0.24310  1.00000
H8  H   4 e 0.57540  0.36990  0.42090  1.00000
H9  H   4 e 0.43850  0.73520  0.31040  1.00000
H10 H   4 e 0.64090  0.15060  0.49600  1.00000
H11 H   4 e 0.94090  0.76720  0.53810  1.00000
H12 H   4 e 0.78910  0.58350  0.50990  1.00000
H13 H   4 e 0.73340  0.79520  0.54030  1.00000
H14 H   4 e 0.20810  0.88420  0.37110  1.00000
H15 H   4 e 0.39750  0.76640  0.40190  1.00000
H16 H   4 e 0.20770  0.67170  0.40870  1.00000
